0 0 0 0
0 1 0 10
0 2 0 17
0 3 0 0
0 4 0 28
0 5 0 10
0 6 0 35
0 7 0 10
0 8 0 46
0 9 0 36
0 10 0 16
0 11 0 20
0 12 0 31
0 13 0 17
0 14 0 27
0 15 0 30
0 16 0 17
0 17 0 30
0 18 0 57
0 19 0 31
0 20 0 36
0 21 0 21
0 22 0 43
0 23 0 46
0 24 0 49
0 25 0 19
0 26 0 48
0 27 0 57
0 28 0 63
0 29 0 118
0 30 0 67
0 31 0 74
0 32 0 71
0 33 0 45
0 34 0 107
0 35 0 135
0 36 0 59
0 37 0 27
0 38 0 123
0 39 0 68
0 40 0 21
0 41 0 27
0 42 0 74
0 43 0 48
0 44 0 91
0 45 0 38
0 46 0 161
0 47 0 74
0 48 0 43
0 49 0 160
0 50 0 67
0 51 0 82
0 52 0 59
0 53 0 87
0 54 0 97
0 55 0 33
0 56 0 85
0 57 0 87
0 58 0 16
0 59 0 91
0 60 0 82
0 61 0 97
0 62 0 31
0 63 0 39
0 64 0 31
0 65 0 116
0 66 0 97
0 67 0 106
0 68 0 71
0 69 0 43
0 70 0 118
0 71 0 135
0 72 0 36
0 73 0 21
0 74 0 45
0 75 0 82
0 76 0 68
0 77 0 81
0 78 0 98
0 79 0 112
0 80 0 107
0 81 0 65
0 82 0 122
0 83 0 88
0 84 0 132
0 85 0 133
0 86 0 135
0 87 0 82
0 88 0 141
0 89 0 74
0 90 0 107
0 91 0 116
0 92 0 151
0 93 0 122
0 94 0 119
0 95 0 133
0 96 0 118
0 97 0 158
0 98 0 161
0 99 0 98
0 100 0 151
0 101 0 123
0 102 0 123
0 103 0 135
0 104 0 147
0 105 0 84
0 106 0 112
0 107 0 123
0 108 0 141
0 109 0 169
0 110 0 169
0 111 0 176
0 112 0 168
0 113 0 151
0 114 0 176
0 115 0 177
0 116 0 137
0 117 0 176
0 118 0 186
0 119 0 179
0 120 0 182
0 121 0 192
